Set parameter TSPort to value 51199
Set parameter TokenServer to value "open-license1.lanl.gov"
Set parameter TimeLimit to value 128
Set parameter Threads to value 1
Gurobi Optimizer version 10.0.3 build v10.0.3rc0 (linux64)

CPU model: Intel(R) Xeon(R) CPU E5-2695 v4 @ 2.10GHz, instruction set [SSE2|AVX|AVX2]
Thread count: 36 physical cores, 72 logical processors, using up to 1 threads

Optimize a model with 0 rows, 598 columns and 0 nonzeros
Model fingerprint: 0x370c0171
Model has 2616 quadratic objective terms
Variable types: 0 continuous, 598 integer (598 binary)
Coefficient statistics:
  Matrix range     [0e+00, 0e+00]
  Objective range  [2e+00, 3e+01]
  QObjective range [8e+00, 8e+00]
  Bounds range     [1e+00, 1e+00]
  RHS range        [0e+00, 0e+00]
Found heuristic solution: objective 0.0000000
Found heuristic solution: objective -1012.000000
Found heuristic solution: objective -3654.000000
Found heuristic solution: objective -3676.000000
Presolve removed 0 rows and 1 columns
Presolve time: 0.24s
Presolved: 2615 rows, 3212 columns, 7845 nonzeros
Variable types: 0 continuous, 3212 integer (3212 binary)

Root relaxation: objective -4.948000e+03, 768 iterations, 0.02 seconds (0.01 work units)

    Nodes    |    Current Node    |     Objective Bounds      |     Work
 Expl Unexpl |  Obj  Depth IntInf | Incumbent    BestBd   Gap | It/Node Time

     0     0 -4948.0000    0  597 -3676.0000 -4948.0000  34.6%     -    0s
     0     0 -4518.5000    0  829 -3676.0000 -4518.5000  22.9%     -    0s
     0     0 -4517.5000    0  825 -3676.0000 -4517.5000  22.9%     -    0s
     0     0 -4413.5000    0  895 -3676.0000 -4413.5000  20.1%     -    0s
     0     0 -4413.5000    0  878 -3676.0000 -4413.5000  20.1%     -    1s
     0     2 -4413.3333    0  878 -3676.0000 -4413.3333  20.1%     -    1s
   509   473 -4390.1667    2  897 -3676.0000 -4393.5000  19.5%  95.6    5s
   532   488 -3747.0000  101 1676 -3676.0000 -4074.1651  10.8%  91.5   10s
   542   495 -3836.0000   83 2017 -3676.0000 -4012.1904  9.15%  89.8   15s
   551   501 -3977.3781   30 2201 -3676.0000 -3977.3781  8.20%  88.4   20s
   560   507 -3947.1012    6 2456 -3676.0000 -3947.1012  7.37%  86.9   27s
   562   508 -3810.0000   90 2577 -3676.0000 -3942.0328  7.24%  86.6   30s
   568   512 -3689.5000  122 2648 -3676.0000 -3924.1550  6.75%  85.7   35s
   575   517 -3761.0000   95 2702 -3676.0000 -3908.7437  6.33%  84.7   42s
   581   521 -3905.9421   34 2752 -3676.0000 -3905.9421  6.26%  83.8   45s
   588   525 -3896.3598   68 2741 -3676.0000 -3896.3598  5.99%  82.8   51s
   594   529 -3891.3236   63 2740 -3676.0000 -3891.3236  5.86%  82.0   55s
   601   534 -3885.1047   45 2789 -3676.0000 -3885.1047  5.69%  81.0   60s
   612   541 -3745.0000  103 2829 -3676.0000 -3881.5923  5.59%  79.5   65s
   621   547 -3877.2155   43 2815 -3676.0000 -3877.2155  5.47%  78.4   70s
   633   555 -3872.5317   32 2853 -3676.0000 -3872.5317  5.35%  76.9   75s
   648   565 -3868.9947   55 2875 -3676.0000 -3868.9947  5.25%  75.1   80s
   662   575 -3810.0000   90 2877 -3676.0000 -3865.2819  5.15%  73.5   85s
   679   586 -3844.0000   77 2904 -3676.0000 -3862.9577  5.09%  71.7   90s
   700   600 -3696.0000  120 2896 -3676.0000 -3860.2094  5.01%  69.5   95s
   710   608 -3812.0000   89 2571 -3676.0000 -3860.2028  5.01%   352  103s
   711   608 -3761.0000  101 2783 -3676.0000 -3860.2028  5.01%   352  108s
   712   609 -3745.0000  103 2839 -3676.0000 -3860.2028  5.01%   351  111s
   722   616 -3859.2212   51 2890 -3676.0000 -3859.2212  4.98%   346  115s
   732   622 -3747.0000  101 2894 -3676.0000 -3856.2929  4.90%   342  120s
   743   630 -3853.7568   11 2897 -3676.0000 -3853.7568  4.84%   337  125s

Cutting planes:
  Gomory: 24
  MIR: 102
  Flow cover: 1029
  Zero half: 424
  Mod-K: 9
  RLT: 117
  BQP: 156

Explored 750 nodes (326915 simplex iterations) in 128.00 seconds (138.74 work units)
Thread count was 1 (of 72 available processors)

Solution count 4: -3676 -3654 -1012 0 

Time limit reached
Best objective -3.676000000000e+03, best bound -3.852000000000e+03, gap 4.7878%

User-callback calls 7723, time in user-callback 0.04 sec

BQP_SOLUTION, 598, 2616, -1344.000000, 128.000621, 1, 1, -1, 1, -1, 1, 1, 1, -1, -1, -1, 1, 1, -1, -1, -1, 1, -1, -1, -1, -1, 1, 1, -1, -1, -1, 1, 1, -1, -1, -1, 1, 1, -1, -1, -1, 1, 1, -1, -1, 1, -1, 1, 1, -1, -1, 1, 1, 1, -1, -1, 1, -1, 1, -1, 1, -1, 1, -1, -1, 1, -1, 1, -1, -1, -1, 1, -1, -1, 1, 1, -1, 1, -1, -1, 1, -1, -1, -1, -1, 1, -1, 1, -1, -1, 1, -1, 1, -1, -1, 1, -1, -1, 1, -1, 1, -1, -1, 1, -1, 1, 1, -1, 1, -1, 1, 1, -1, 1, 1, 1, -1, -1, 1, 1, 1, 1, -1, 1, 1, 1, -1, 1, 1, 1, 1, -1, 1, 1, -1, 1, -1, 1, 1, 1, 1, 1, 1, 1, 1, 1, -1, 1, 1, 1, 1, -1, 1, 1, -1, 1, -1, 1, 1, 1, 1, -1, 1, 1, 1, 1, -1, 1, 1, -1, 1, 1, 1, 1, 1, 1, -1, 1, 1, -1, 1, 1, 1, 1, 1, 1, 1, 1, 1, 1, 1, 1, 1, 1, 1, 1, 1, 1, 1, 1, 1, 1, 1, 1, 1, 1, 1, 1, 1, 1, 1, 1, 1, 1, 1, 1, 1, 1, 1, 1, 1, 1, 1, 1, 1, 1, 1, 1, 1, 1, 1, 1, 1, 1, 1, 1, -1, 1, 1, 1, 1, 1, -1, 1, 1, 1, 1, 1, 1, 1, -1, 1, 1, 1, 1, 1, 1, 1, -1, 1, -1, 1, 1, 1, 1, -1, 1, 1, 1, 1, -1, 1, 1, -1, 1, -1, 1, 1, 1, 1, -1, 1, 1, 1, 1, -1, 1, -1, 1, -1, 1, 1, 1, 1, 1, -1, 1, -1, -1, 1, -1, 1, 1, 1, 1, 1, -1, -1, -1, 1, -1, -1, -1, -1, 1, -1, -1, -1, 1, -1, -1, 1, -1, -1, 1, -1, -1, -1, 1, -1, -1, -1, -1, 1, -1, -1, -1, 1, 1, -1, -1, -1, -1, 1, -1, -1, -1, -1, 1, -1, 1, -1, -1, -1, -1, 1, -1, -1, -1, 1, 1, -1, 1, 1, -1, -1, 1, 1, 1, -1, -1, -1, -1, 1, 1, 1, -1, 1, 1, 1, -1, 1, 1, -1, 1, -1, -1, 1, -1, 1, 1, -1, 1, 1, 1, -1, 1, 1, -1, 1, 1, -1, 1, -1, 1, 1, -1, 1, -1, 1, 1, -1, -1, -1, 1, 1, -1, -1, 1, 1, -1, -1, -1, 1, -1, -1, -1, -1, -1, 1, -1, 1, -1, -1, 1, -1, -1, -1, -1, -1, 1, -1, 1, -1, -1, -1, -1, -1, -1, 1, -1, -1, -1, -1, -1, -1, -1, -1, -1, -1, 1, -1, -1, -1, 1, -1, -1, -1, -1, 1, -1, -1, -1, 1, 1, -1, -1, -1, 1, -1, -1, -1, -1, -1, -1, -1, -1, 1, 1, -1, -1, -1, -1, 1, -1, -1, -1, -1, 1, -1, -1, -1, 1, 1, 1, -1, -1, -1, 1, -1, 1, -1, -1, 1, -1, -1, -1, -1, 1, 1, -1, 1, -1, 1, 1, -1, -1, 1, 1, 1, -1, -1, -1, 1, 1, -1, -1, -1, 1, 1, 1, -1, -1, 1, -1, -1, 1, 1, 1, -1, -1, -1, 1, 1, 1, -1, -1, -1, 1, 1, -1, -1, 1, 1, 1, -1, -1, -1, 1, 1, -1, -1, 1, 1, -1, -1, -1, 1, 1, 1, 1, -1, -1, 1, 1, -1, -1, 1, 1, 1, -1, 1, -1, 1, 1, 1, 1, -1, 1, 1, -1, 1, -1
BQP_DATA, 598, 2616, -1344.000000, -1520.000000, -3676.000000, -3852.000000, 128.000621, 1588, 750
